33D32945 STP File, STP Format Version 1.0

SECTION Comments
Name "edge_n15_d3_s31"
Problem "Euclidean Steiner Tree Problem"
Remark "Generated with STPGenerator. 3 dimensions."
END

SECTION Graph
Nodes 15
END

SECTION Coordinates
DDD 0 0.5921190123 0.5921190123 0.5921190123
DDD 1 0.7871168474 0.7871168474 0.7871168474
DDD 2 0.8626960571 0.8626960571 0.8626960571
DDD 3 0.4022940902 0.4022940902 0.4022940902
DDD 4 0.4331044440 0.4331044440 0.4331044440
DDD 5 0.3224785879 0.3224785879 0.3224785879
DDD 6 0.1665347033 0.1665347033 0.1665347033
DDD 7 0.6197118892 0.6197118892 0.6197118892
DDD 8 0.4428926201 0.4428926201 0.4428926201
DDD 9 0.5949672445 0.5949672445 0.5949672445
DDD 10 0.2624237846 0.2624237846 0.2624237846
DDD 11 0.4864085733 0.4864085733 0.4864085733
DDD 12 0.4051467089 0.4051467089 0.4051467089
DDD 13 0.0680107870 0.0680107870 0.0680107870
DDD 14 0.7012902786 0.7012902786 0.7012902786
END
